154
10000
1122
3303
1964
1283
1327
4538
2440
2551
547
142
2765
2
1308
1754
4081
2983
2580
2220
3369
491
1540
1217
115
2461
2217
2807
4197
917
376
1954
1073
3884
35
950
1316
1554
950
482
304
2541
909
2692
4918
2087
3199
1853
931
4230
2399
1180
4234
1265
1117
600
2065
2283
3792
1731
876
843
778
681
3299
3650
83
2245
4553
1639
4408
207
3079
204
3259
3408
646
1528
1082
197
2715
941
672
3393
3001
2329
3229
4507
564
2546
417
276
4766
3148
3584
3055
239
555
4750
17
1611
2355
1842
2979
2303
386
784
2113
1915
1142
74
2555
1942
3364
2163
647
1890
1086
2980
1088
1476
412
2304
4659
2655
1230
1511
3302
693
1701
2491
2417
666
426
1522
917
2890
4331
3796
3208
68
2438
744
1939
4631
2764
3498
421
860
3022
905
1270
773
4041
203
83
